146
1000
326
299
74
184
65
316
18
230
208
194
193
183
151
116
57
26
55
120
102
379
294
40
358
15
293
485
72
17
336
92
185
393
171
114
498
362
46
328
335
449
182
438
349
1
430
254
333
403
96
178
128
22
488
175
37
401
319
215
498
487
256
183
462
296
78
87
20
50
143
37
296
107
210
38
190
321
323
86
83
500
161
119
15
394
149
103
172
19
456
51
18
195
41
466
99
181
300
101
469
309
394
46
117
365
147
22
106
273
74
73
68
458
355
49
31
306
6
241
36
64
177
105
367
480
152
418
197
69
64
47
434
37
304
330
211
93
38
308
37
374
338
130
113
49
408
292
